0 4386
1 4348
3 4329
5 4309
9 4303
11 4268
16 4225
19 4194
22 4074
27 4035
36 3996
37 3945
42 3882
43 3879
44 3835
50 3775
67 3765
88 3720
91 3712
96 3703
119 3700
127 3693
192 3691
196 3690
204 3689
214 3668
221 3655
238 3653
246 3652
282 3649
291 3642
328 3638
341 3635
412 3630
438 3622
439 3606
446 3601
467 3599
491 3598
531 3597
545 3595
565 3594
566 3592
665 3591
715 3579
811 3578
854 3575
905 3573
928 3571
1607 3569
1630 3567
2282 3562
2526 3560
2723 3559
2913 3556
3386 3554
3922 3552
6273 3550
7676 3547
